DATASET = "thpack6";
INSTANCE = "046";

WIDTH = 233;
HEIGHT = 220;
LENGTH = 587;

NO_OF_SHAPES = 15;
size = [|
  86,58,36 |
  71,69,22 |
  108,78,54 |
  104,58,57 |
  96,65,58 |
  58,37,26 |
  73,72,49 |
  98,67,56 |
  117,89,23 |
  109,76,73 |
  95,61,34 |
  106,73,49 |
  66,39,35 |
  82,76,43 |
  93,87,26 |
|];

verticality = [|
  0,1,1 |
  0,0,1 |
  0,1,1 |
  1,1,1 |
  1,1,1 |
  0,1,1 |
  1,1,1 |
  1,1,1 |
  0,0,1 |
  1,1,1 |
  0,1,1 |
  0,1,1 |
  1,1,1 |
  1,1,1 |
  0,0,1 |
|];

box_count = [
  7,
  4,
  9,
  7,
  8,
  10,
  11,
  7,
  5,
  4,
  7,
  10,
  8,
  7,
  7,
];
